; benchmark generated from python API
(set-info :status unknown)
(declare-fun x_months () Int)
(declare-fun x_beta () Int)
(assert
 (<= (- 1202) x_months))
(assert
 (>= 1209 x_months))
(assert
 (let ((?x1095 (mod x_months 48)))
 (let ((?x13 ((as const (Array Int Int)) 0)))
 (let ((?x15 (store ?x13 0 31)))
 (let ((?x18 (store ?x15 1 30)))
 (let ((?x20 (store ?x18 2 31)))
 (let ((?x22 (store ?x20 3 30)))
 (let ((?x24 (store ?x22 4 31)))
 (let ((?x26 (store ?x24 5 31)))
 (let ((?x28 (store ?x26 6 30)))
 (let ((?x30 (store ?x28 7 31)))
 (let ((?x32 (store ?x30 8 30)))
 (let ((?x34 (store ?x32 9 31)))
 (let ((?x36 (store ?x34 10 31)))
 (let ((?x39 (store ?x36 11 28)))
 (let ((?x41 (store ?x39 12 31)))
 (let ((?x43 (store ?x41 13 30)))
 (let ((?x45 (store ?x43 14 31)))
 (let ((?x47 (store ?x45 15 30)))
 (let ((?x49 (store ?x47 16 31)))
 (let ((?x51 (store ?x49 17 31)))
 (let ((?x53 (store ?x51 18 30)))
 (let ((?x55 (store ?x53 19 31)))
 (let ((?x57 (store ?x55 20 30)))
 (let ((?x59 (store ?x57 21 31)))
 (let ((?x61 (store ?x59 22 31)))
 (let ((?x63 (store ?x61 23 28)))
 (let ((?x65 (store ?x63 24 31)))
 (let ((?x67 (store ?x65 25 30)))
 (let ((?x69 (store ?x67 26 31)))
 (let ((?x71 (store ?x69 27 30)))
 (let ((?x72 (store ?x71 28 31)))
 (let ((?x74 (store ?x72 29 31)))
 (let ((?x75 (store ?x74 30 30)))
 (let ((?x76 (store ?x75 31 31)))
 (let ((?x78 (store ?x76 32 30)))
 (let ((?x80 (store ?x78 33 31)))
 (let ((?x82 (store ?x80 34 31)))
 (let ((?x84 (store ?x82 35 28)))
 (let ((?x86 (store ?x84 36 31)))
 (let ((?x88 (store ?x86 37 30)))
 (let ((?x90 (store ?x88 38 31)))
 (let ((?x92 (store ?x90 39 30)))
 (let ((?x94 (store ?x92 40 31)))
 (let ((?x96 (store ?x94 41 31)))
 (let ((?x98 (store ?x96 42 30)))
 (let ((?x100 (store ?x98 43 31)))
 (let ((?x102 (store ?x100 44 30)))
 (let ((?x104 (store ?x102 45 31)))
 (let ((?x106 (store ?x104 46 31)))
 (let ((?x108 (store ?x106 47 29)))
 (let ((?x505 (select ?x108 ?x1095)))
 (let ((?x486 (ite (or (= 22802 (+ x_months 24003)) (= 25202 (+ x_months 24003))) 28 ?x505)))
 (let (($x275 (<= 0 x_beta)))
 (and $x275 (< x_beta ?x486))))))))))))))))))))))))))))))))))))))))))))))))))))))))
(assert
 (let (($x275 (<= 0 x_beta)))
 (or (> x_months (- (+ (* 2023 12) 1) 24003)) (and (= x_months (- (+ (* 2023 12) 1) 24003)) $x275))))
(assert
 (let ((?x687 (- (+ (* 2023 12) 12) 24003)))
 (let (($x686 (= x_months ?x687)))
 (or (< x_months ?x687) (and $x686 (>= 30 x_beta))))))
(assert
 (let ((?x1122 (+ x_months 0)))
 (let ((?x1124 (mod ?x1122 48)))
 (let ((?x1166 (ite (> 22803 (+ ?x1122 24003)) 1 (ite (<= 25203 (+ ?x1122 24003)) (- 1) 0))))
 (let ((?x13 ((as const (Array Int Int)) 0)))
 (let ((?x15 (store ?x13 0 31)))
 (let ((?x18 (store ?x15 1 30)))
 (let ((?x20 (store ?x18 2 31)))
 (let ((?x22 (store ?x20 3 30)))
 (let ((?x24 (store ?x22 4 31)))
 (let ((?x26 (store ?x24 5 31)))
 (let ((?x28 (store ?x26 6 30)))
 (let ((?x30 (store ?x28 7 31)))
 (let ((?x32 (store ?x30 8 30)))
 (let ((?x34 (store ?x32 9 31)))
 (let ((?x36 (store ?x34 10 31)))
 (let ((?x39 (store ?x36 11 28)))
 (let ((?x41 (store ?x39 12 31)))
 (let ((?x43 (store ?x41 13 30)))
 (let ((?x45 (store ?x43 14 31)))
 (let ((?x47 (store ?x45 15 30)))
 (let ((?x49 (store ?x47 16 31)))
 (let ((?x51 (store ?x49 17 31)))
 (let ((?x53 (store ?x51 18 30)))
 (let ((?x55 (store ?x53 19 31)))
 (let ((?x57 (store ?x55 20 30)))
 (let ((?x59 (store ?x57 21 31)))
 (let ((?x61 (store ?x59 22 31)))
 (let ((?x63 (store ?x61 23 28)))
 (let ((?x65 (store ?x63 24 31)))
 (let ((?x67 (store ?x65 25 30)))
 (let ((?x69 (store ?x67 26 31)))
 (let ((?x71 (store ?x69 27 30)))
 (let ((?x72 (store ?x71 28 31)))
 (let ((?x74 (store ?x72 29 31)))
 (let ((?x75 (store ?x74 30 30)))
 (let ((?x76 (store ?x75 31 31)))
 (let ((?x78 (store ?x76 32 30)))
 (let ((?x80 (store ?x78 33 31)))
 (let ((?x82 (store ?x80 34 31)))
 (let ((?x84 (store ?x82 35 28)))
 (let ((?x86 (store ?x84 36 31)))
 (let ((?x88 (store ?x86 37 30)))
 (let ((?x90 (store ?x88 38 31)))
 (let ((?x92 (store ?x90 39 30)))
 (let ((?x94 (store ?x92 40 31)))
 (let ((?x96 (store ?x94 41 31)))
 (let ((?x98 (store ?x96 42 30)))
 (let ((?x100 (store ?x98 43 31)))
 (let ((?x102 (store ?x100 44 30)))
 (let ((?x104 (store ?x102 45 31)))
 (let ((?x106 (store ?x104 46 31)))
 (let ((?x108 (store ?x106 47 29)))
 (let ((?x1133 (ite (or (= 22802 (+ ?x1122 24003)) (= 25202 (+ ?x1122 24003))) 28 (select ?x108 ?x1124))))
 (let ((?x1134 (- ?x1133 1)))
 (let (($x560 (> 0 x_beta)))
 (let ((?x114 (store (store (store (store ?x13 0 0) 1 31) 2 61) 3 92)))
 (let ((?x122 (store (store (store (store ?x114 4 122) 5 153) 6 184) 7 214)))
 (let ((?x130 (store (store (store (store ?x122 8 245) 9 275) 10 306) 11 337)))
 (let ((?x138 (store (store (store (store ?x130 12 365) 13 396) 14 426) 15 457)))
 (let ((?x146 (store (store (store (store ?x138 16 487) 17 518) 18 549) 19 579)))
 (let ((?x154 (store (store (store (store ?x146 20 610) 21 640) 22 671) 23 702)))
 (let ((?x162 (store (store (store (store ?x154 24 730) 25 761) 26 791) 27 822)))
 (let ((?x170 (store (store (store (store ?x162 28 852) 29 883) 30 914) 31 944)))
 (let ((?x178 (store (store (store (store ?x170 32 975) 33 1005) 34 1036) 35 1067)))
 (let ((?x186 (store (store (store (store ?x178 36 1095) 37 1126) 38 1156) 39 1187)))
 (let ((?x194 (store (store (store (store ?x186 40 1217) 41 1248) 42 1279) 43 1309)))
 (let ((?x202 (store (store (store (store ?x194 44 1340) 45 1370) 46 1401) 47 1432)))
 (let ((?x1151 (+ (select ?x202 ?x1124) (ite $x560 0 (ite (> x_beta ?x1134) ?x1134 x_beta)))))
 (let ((?x1181 (+ (+ ?x1151 ?x1166) 61)))
 (let ((?x1190 (+ ?x1122 (* (div ?x1181 1461) 48))))
 (let ((?x1157 (+ (+ ?x1190 (- 1 ?x1124)) 24003)))
 (let ((?x540 (select ?x202 1)))
 (let ((?x1224 (mod ?x1181 1461)))
 (let (($x1196 (>= ?x1224 (+ ?x540 (ite (> 22803 ?x1157) 1 (ite (<= 25203 ?x1157) (- 1) 0))))))
 (let ((?x1223 (ite (> 22803 (+ (+ ?x1190 (- 2 ?x1124)) 24003)) 1 (ite (<= 25203 (+ (+ ?x1190 (- 2 ?x1124)) 24003)) (- 1) 0))))
 (let ((?x565 (select ?x202 2)))
 (let ((?x1213 (ite (> 22803 (+ (+ ?x1190 (- 3 ?x1124)) 24003)) 1 (ite (<= 25203 (+ (+ ?x1190 (- 3 ?x1124)) 24003)) (- 1) 0))))
 (let ((?x735 (select ?x202 3)))
 (let ((?x1208 (ite (>= ?x1224 (+ ?x735 ?x1213)) 3 (ite (>= ?x1224 (+ ?x565 ?x1223)) 2 (ite $x1196 1 0)))))
 (let ((?x1261 (ite (> 22803 (+ (+ ?x1190 (- 4 ?x1124)) 24003)) 1 (ite (<= 25203 (+ (+ ?x1190 (- 4 ?x1124)) 24003)) (- 1) 0))))
 (let ((?x716 (select ?x202 4)))
 (let ((?x1281 (ite (> 22803 (+ (+ ?x1190 (- 5 ?x1124)) 24003)) 1 (ite (<= 25203 (+ (+ ?x1190 (- 5 ?x1124)) 24003)) (- 1) 0))))
 (let ((?x736 (select ?x202 5)))
 (let ((?x1286 (ite (>= ?x1224 (+ ?x736 ?x1281)) 5 (ite (>= ?x1224 (+ ?x716 ?x1261)) 4 ?x1208))))
 (let ((?x1299 (ite (> 22803 (+ (+ ?x1190 (- 6 ?x1124)) 24003)) 1 (ite (<= 25203 (+ (+ ?x1190 (- 6 ?x1124)) 24003)) (- 1) 0))))
 (let ((?x496 (select ?x202 6)))
 (let ((?x1226 (ite (> 22803 (+ (+ ?x1190 (- 7 ?x1124)) 24003)) 1 (ite (<= 25203 (+ (+ ?x1190 (- 7 ?x1124)) 24003)) (- 1) 0))))
 (let ((?x509 (select ?x202 7)))
 (let ((?x1229 (ite (>= ?x1224 (+ ?x509 ?x1226)) 7 (ite (>= ?x1224 (+ ?x496 ?x1299)) 6 ?x1286))))
 (let ((?x1183 (ite (> 22803 (+ (+ ?x1190 (- 8 ?x1124)) 24003)) 1 (ite (<= 25203 (+ (+ ?x1190 (- 8 ?x1124)) 24003)) (- 1) 0))))
 (let ((?x404 (select ?x202 8)))
 (let ((?x1097 (ite (> 22803 (+ (+ ?x1190 (- 9 ?x1124)) 24003)) 1 (ite (<= 25203 (+ (+ ?x1190 (- 9 ?x1124)) 24003)) (- 1) 0))))
 (let ((?x355 (select ?x202 9)))
 (let ((?x1143 (ite (>= ?x1224 (+ ?x355 ?x1097)) 9 (ite (>= ?x1224 (+ ?x404 ?x1183)) 8 ?x1229))))
 (let ((?x1240 (ite (> 22803 (+ (+ ?x1190 (- 10 ?x1124)) 24003)) 1 (ite (<= 25203 (+ (+ ?x1190 (- 10 ?x1124)) 24003)) (- 1) 0))))
 (let ((?x352 (select ?x202 10)))
 (let ((?x1153 (ite (> 22803 (+ (+ ?x1190 (- 11 ?x1124)) 24003)) 1 (ite (<= 25203 (+ (+ ?x1190 (- 11 ?x1124)) 24003)) (- 1) 0))))
 (let ((?x785 (select ?x202 11)))
 (let ((?x1310 (ite (>= ?x1224 (+ ?x785 ?x1153)) 11 (ite (>= ?x1224 (+ ?x352 ?x1240)) 10 ?x1143))))
 (let ((?x1135 (ite (> 22803 (+ (+ ?x1190 (- 12 ?x1124)) 24003)) 1 (ite (<= 25203 (+ (+ ?x1190 (- 12 ?x1124)) 24003)) (- 1) 0))))
 (let ((?x529 (select ?x202 12)))
 (let ((?x1146 (ite (> 22803 (+ (+ ?x1190 (- 13 ?x1124)) 24003)) 1 (ite (<= 25203 (+ (+ ?x1190 (- 13 ?x1124)) 24003)) (- 1) 0))))
 (let ((?x810 (select ?x202 13)))
 (let ((?x1179 (ite (>= ?x1224 (+ ?x810 ?x1146)) 13 (ite (>= ?x1224 (+ ?x529 ?x1135)) 12 ?x1310))))
 (let ((?x1160 (ite (> 22803 (+ (+ ?x1190 (- 14 ?x1124)) 24003)) 1 (ite (<= 25203 (+ (+ ?x1190 (- 14 ?x1124)) 24003)) (- 1) 0))))
 (let ((?x817 (select ?x202 14)))
 (let ((?x1187 (ite (> 22803 (+ (+ ?x1190 (- 15 ?x1124)) 24003)) 1 (ite (<= 25203 (+ (+ ?x1190 (- 15 ?x1124)) 24003)) (- 1) 0))))
 (let ((?x827 (select ?x202 15)))
 (let ((?x1243 (ite (>= ?x1224 (+ ?x827 ?x1187)) 15 (ite (>= ?x1224 (+ ?x817 ?x1160)) 14 ?x1179))))
 (let ((?x1170 (ite (> 22803 (+ (+ ?x1190 (- 16 ?x1124)) 24003)) 1 (ite (<= 25203 (+ (+ ?x1190 (- 16 ?x1124)) 24003)) (- 1) 0))))
 (let ((?x475 (select ?x202 16)))
 (let ((?x1312 (ite (> 22803 (+ (+ ?x1190 (- 17 ?x1124)) 24003)) 1 (ite (<= 25203 (+ (+ ?x1190 (- 17 ?x1124)) 24003)) (- 1) 0))))
 (let ((?x855 (select ?x202 17)))
 (let ((?x1315 (ite (>= ?x1224 (+ ?x855 ?x1312)) 17 (ite (>= ?x1224 (+ ?x475 ?x1170)) 16 ?x1243))))
 (let ((?x1322 (ite (> 22803 (+ (+ ?x1190 (- 18 ?x1124)) 24003)) 1 (ite (<= 25203 (+ (+ ?x1190 (- 18 ?x1124)) 24003)) (- 1) 0))))
 (let ((?x806 (select ?x202 18)))
 (let ((?x1332 (ite (> 22803 (+ (+ ?x1190 (- 19 ?x1124)) 24003)) 1 (ite (<= 25203 (+ (+ ?x1190 (- 19 ?x1124)) 24003)) (- 1) 0))))
 (let ((?x915 (select ?x202 19)))
 (let ((?x1335 (ite (>= ?x1224 (+ ?x915 ?x1332)) 19 (ite (>= ?x1224 (+ ?x806 ?x1322)) 18 ?x1315))))
 (let ((?x1342 (ite (> 22803 (+ (+ ?x1190 (- 20 ?x1124)) 24003)) 1 (ite (<= 25203 (+ (+ ?x1190 (- 20 ?x1124)) 24003)) (- 1) 0))))
 (let ((?x934 (select ?x202 20)))
 (let ((?x1352 (ite (> 22803 (+ (+ ?x1190 (- 21 ?x1124)) 24003)) 1 (ite (<= 25203 (+ (+ ?x1190 (- 21 ?x1124)) 24003)) (- 1) 0))))
 (let ((?x945 (select ?x202 21)))
 (let ((?x1355 (ite (>= ?x1224 (+ ?x945 ?x1352)) 21 (ite (>= ?x1224 (+ ?x934 ?x1342)) 20 ?x1335))))
 (let ((?x1362 (ite (> 22803 (+ (+ ?x1190 (- 22 ?x1124)) 24003)) 1 (ite (<= 25203 (+ (+ ?x1190 (- 22 ?x1124)) 24003)) (- 1) 0))))
 (let ((?x956 (select ?x202 22)))
 (let ((?x1372 (ite (> 22803 (+ (+ ?x1190 (- 23 ?x1124)) 24003)) 1 (ite (<= 25203 (+ (+ ?x1190 (- 23 ?x1124)) 24003)) (- 1) 0))))
 (let ((?x967 (select ?x202 23)))
 (let ((?x1375 (ite (>= ?x1224 (+ ?x967 ?x1372)) 23 (ite (>= ?x1224 (+ ?x956 ?x1362)) 22 ?x1355))))
 (let ((?x1382 (ite (> 22803 (+ (+ ?x1190 (- 24 ?x1124)) 24003)) 1 (ite (<= 25203 (+ (+ ?x1190 (- 24 ?x1124)) 24003)) (- 1) 0))))
 (let ((?x916 (select ?x202 24)))
 (let ((?x1392 (ite (> 22803 (+ (+ ?x1190 (- 25 ?x1124)) 24003)) 1 (ite (<= 25203 (+ (+ ?x1190 (- 25 ?x1124)) 24003)) (- 1) 0))))
 (let ((?x988 (select ?x202 25)))
 (let ((?x1395 (ite (>= ?x1224 (+ ?x988 ?x1392)) 25 (ite (>= ?x1224 (+ ?x916 ?x1382)) 24 ?x1375))))
 (let ((?x1402 (ite (> 22803 (+ (+ ?x1190 (- 26 ?x1124)) 24003)) 1 (ite (<= 25203 (+ (+ ?x1190 (- 26 ?x1124)) 24003)) (- 1) 0))))
 (let ((?x849 (select ?x202 26)))
 (let ((?x1412 (ite (> 22803 (+ (+ ?x1190 (- 27 ?x1124)) 24003)) 1 (ite (<= 25203 (+ (+ ?x1190 (- 27 ?x1124)) 24003)) (- 1) 0))))
 (let ((?x907 (select ?x202 27)))
 (let ((?x1415 (ite (>= ?x1224 (+ ?x907 ?x1412)) 27 (ite (>= ?x1224 (+ ?x849 ?x1402)) 26 ?x1395))))
 (let ((?x1422 (ite (> 22803 (+ (+ ?x1190 (- 28 ?x1124)) 24003)) 1 (ite (<= 25203 (+ (+ ?x1190 (- 28 ?x1124)) 24003)) (- 1) 0))))
 (let ((?x902 (select ?x202 28)))
 (let ((?x1432 (ite (> 22803 (+ (+ ?x1190 (- 29 ?x1124)) 24003)) 1 (ite (<= 25203 (+ (+ ?x1190 (- 29 ?x1124)) 24003)) (- 1) 0))))
 (let ((?x1007 (select ?x202 29)))
 (let ((?x1435 (ite (>= ?x1224 (+ ?x1007 ?x1432)) 29 (ite (>= ?x1224 (+ ?x902 ?x1422)) 28 ?x1415))))
 (let ((?x1442 (ite (> 22803 (+ (+ ?x1190 (- 30 ?x1124)) 24003)) 1 (ite (<= 25203 (+ (+ ?x1190 (- 30 ?x1124)) 24003)) (- 1) 0))))
 (let ((?x1023 (select ?x202 30)))
 (let ((?x1452 (ite (> 22803 (+ (+ ?x1190 (- 31 ?x1124)) 24003)) 1 (ite (<= 25203 (+ (+ ?x1190 (- 31 ?x1124)) 24003)) (- 1) 0))))
 (let ((?x1040 (select ?x202 31)))
 (let ((?x1455 (ite (>= ?x1224 (+ ?x1040 ?x1452)) 31 (ite (>= ?x1224 (+ ?x1023 ?x1442)) 30 ?x1435))))
 (let ((?x1462 (ite (> 22803 (+ (+ ?x1190 (- 32 ?x1124)) 24003)) 1 (ite (<= 25203 (+ (+ ?x1190 (- 32 ?x1124)) 24003)) (- 1) 0))))
 (let ((?x918 (select ?x202 32)))
 (let ((?x1472 (ite (> 22803 (+ (+ ?x1190 (- 33 ?x1124)) 24003)) 1 (ite (<= 25203 (+ (+ ?x1190 (- 33 ?x1124)) 24003)) (- 1) 0))))
 (let ((?x1066 (select ?x202 33)))
 (let ((?x1475 (ite (>= ?x1224 (+ ?x1066 ?x1472)) 33 (ite (>= ?x1224 (+ ?x918 ?x1462)) 32 ?x1455))))
 (let ((?x1482 (ite (> 22803 (+ (+ ?x1190 (- 34 ?x1124)) 24003)) 1 (ite (<= 25203 (+ (+ ?x1190 (- 34 ?x1124)) 24003)) (- 1) 0))))
 (let ((?x1083 (select ?x202 34)))
 (let ((?x1492 (ite (> 22803 (+ (+ ?x1190 (- 35 ?x1124)) 24003)) 1 (ite (<= 25203 (+ (+ ?x1190 (- 35 ?x1124)) 24003)) (- 1) 0))))
 (let ((?x990 (select ?x202 35)))
 (let ((?x1495 (ite (>= ?x1224 (+ ?x990 ?x1492)) 35 (ite (>= ?x1224 (+ ?x1083 ?x1482)) 34 ?x1475))))
 (let ((?x1502 (ite (> 22803 (+ (+ ?x1190 (- 36 ?x1124)) 24003)) 1 (ite (<= 25203 (+ (+ ?x1190 (- 36 ?x1124)) 24003)) (- 1) 0))))
 (let ((?x757 (select ?x202 36)))
 (let ((?x1512 (ite (> 22803 (+ (+ ?x1190 (- 37 ?x1124)) 24003)) 1 (ite (<= 25203 (+ (+ ?x1190 (- 37 ?x1124)) 24003)) (- 1) 0))))
 (let ((?x281 (select ?x202 37)))
 (let ((?x1515 (ite (>= ?x1224 (+ ?x281 ?x1512)) 37 (ite (>= ?x1224 (+ ?x757 ?x1502)) 36 ?x1495))))
 (let ((?x1522 (ite (> 22803 (+ (+ ?x1190 (- 38 ?x1124)) 24003)) 1 (ite (<= 25203 (+ (+ ?x1190 (- 38 ?x1124)) 24003)) (- 1) 0))))
 (let ((?x863 (select ?x202 38)))
 (let ((?x1532 (ite (> 22803 (+ (+ ?x1190 (- 39 ?x1124)) 24003)) 1 (ite (<= 25203 (+ (+ ?x1190 (- 39 ?x1124)) 24003)) (- 1) 0))))
 (let ((?x802 (select ?x202 39)))
 (let ((?x1535 (ite (>= ?x1224 (+ ?x802 ?x1532)) 39 (ite (>= ?x1224 (+ ?x863 ?x1522)) 38 ?x1515))))
 (let ((?x1542 (ite (> 22803 (+ (+ ?x1190 (- 40 ?x1124)) 24003)) 1 (ite (<= 25203 (+ (+ ?x1190 (- 40 ?x1124)) 24003)) (- 1) 0))))
 (let ((?x845 (select ?x202 40)))
 (let ((?x1552 (ite (> 22803 (+ (+ ?x1190 (- 41 ?x1124)) 24003)) 1 (ite (<= 25203 (+ (+ ?x1190 (- 41 ?x1124)) 24003)) (- 1) 0))))
 (let ((?x857 (select ?x202 41)))
 (let ((?x1555 (ite (>= ?x1224 (+ ?x857 ?x1552)) 41 (ite (>= ?x1224 (+ ?x845 ?x1542)) 40 ?x1535))))
 (let ((?x1562 (ite (> 22803 (+ (+ ?x1190 (- 42 ?x1124)) 24003)) 1 (ite (<= 25203 (+ (+ ?x1190 (- 42 ?x1124)) 24003)) (- 1) 0))))
 (let ((?x799 (select ?x202 42)))
 (let ((?x1572 (ite (> 22803 (+ (+ ?x1190 (- 43 ?x1124)) 24003)) 1 (ite (<= 25203 (+ (+ ?x1190 (- 43 ?x1124)) 24003)) (- 1) 0))))
 (let ((?x759 (select ?x202 43)))
 (let ((?x1575 (ite (>= ?x1224 (+ ?x759 ?x1572)) 43 (ite (>= ?x1224 (+ ?x799 ?x1562)) 42 ?x1555))))
 (let ((?x1582 (ite (> 22803 (+ (+ ?x1190 (- 44 ?x1124)) 24003)) 1 (ite (<= 25203 (+ (+ ?x1190 (- 44 ?x1124)) 24003)) (- 1) 0))))
 (let ((?x438 (select ?x202 44)))
 (let ((?x1592 (ite (> 22803 (+ (+ ?x1190 (- 45 ?x1124)) 24003)) 1 (ite (<= 25203 (+ (+ ?x1190 (- 45 ?x1124)) 24003)) (- 1) 0))))
 (let ((?x1091 (select ?x202 45)))
 (let ((?x1595 (ite (>= ?x1224 (+ ?x1091 ?x1592)) 45 (ite (>= ?x1224 (+ ?x438 ?x1582)) 44 ?x1575))))
 (let ((?x1602 (ite (> 22803 (+ (+ ?x1190 (- 46 ?x1124)) 24003)) 1 (ite (<= 25203 (+ (+ ?x1190 (- 46 ?x1124)) 24003)) (- 1) 0))))
 (let ((?x1003 (select ?x202 46)))
 (let ((?x1612 (ite (> 22803 (+ (+ ?x1190 (- 47 ?x1124)) 24003)) 1 (ite (<= 25203 (+ (+ ?x1190 (- 47 ?x1124)) 24003)) (- 1) 0))))
 (let ((?x1241 (select ?x202 47)))
 (let ((?x1615 (ite (>= ?x1224 (+ ?x1241 ?x1612)) 47 (ite (>= ?x1224 (+ ?x1003 ?x1602)) 46 ?x1595))))
 (let ((?x1617 (+ ?x1190 (- ?x1615 ?x1124))))
 (let ((?x1618 (+ ?x1617 24003)))
 (let ((?x1624 (+ (select ?x202 ?x1615) (ite (> 22803 ?x1618) 1 (ite (<= 25203 ?x1618) (- 1) 0)))))
 (let ((?x1625 (- ?x1224 ?x1624)))
 (let ((?x1630 (ite (or (= 22802 ?x1618) (= 25202 ?x1618)) 28 (select ?x108 ?x1615))))
 (let ((?x707 (+ x_months 2)))
 (let ((?x709 (mod ?x707 48)))
 (let ((?x328 (ite (> 22803 (+ ?x707 24003)) 1 (ite (<= 25203 (+ ?x707 24003)) (- 1) 0))))
 (let ((?x569 (ite (or (= 22802 (+ ?x707 24003)) (= 25202 (+ ?x707 24003))) 28 (select ?x108 ?x709))))
 (let ((?x561 (- ?x569 1)))
 (let ((?x347 (+ (select ?x202 ?x709) (ite $x560 0 (ite (> x_beta ?x561) ?x561 x_beta)))))
 (let ((?x327 (+ (+ ?x347 ?x328) 0)))
 (let ((?x539 (+ ?x707 (* (div ?x327 1461) 48))))
 (let ((?x545 (+ (+ ?x539 (- 1 ?x709)) 24003)))
 (let ((?x314 (mod ?x327 1461)))
 (let (($x241 (>= ?x314 (+ ?x540 (ite (> 22803 ?x545) 1 (ite (<= 25203 ?x545) (- 1) 0))))))
 (let ((?x562 (ite (> 22803 (+ (+ ?x539 (- 2 ?x709)) 24003)) 1 (ite (<= 25203 (+ (+ ?x539 (- 2 ?x709)) 24003)) (- 1) 0))))
 (let ((?x734 (ite (> 22803 (+ (+ ?x539 (- 3 ?x709)) 24003)) 1 (ite (<= 25203 (+ (+ ?x539 (- 3 ?x709)) 24003)) (- 1) 0))))
 (let ((?x728 (ite (>= ?x314 (+ ?x735 ?x734)) 3 (ite (>= ?x314 (+ ?x565 ?x562)) 2 (ite $x241 1 0)))))
 (let ((?x720 (ite (> 22803 (+ (+ ?x539 (- 4 ?x709)) 24003)) 1 (ite (<= 25203 (+ (+ ?x539 (- 4 ?x709)) 24003)) (- 1) 0))))
 (let ((?x733 (ite (> 22803 (+ (+ ?x539 (- 5 ?x709)) 24003)) 1 (ite (<= 25203 (+ (+ ?x539 (- 5 ?x709)) 24003)) (- 1) 0))))
 (let ((?x745 (ite (>= ?x314 (+ ?x736 ?x733)) 5 (ite (>= ?x314 (+ ?x716 ?x720)) 4 ?x728))))
 (let ((?x491 (ite (> 22803 (+ (+ ?x539 (- 6 ?x709)) 24003)) 1 (ite (<= 25203 (+ (+ ?x539 (- 6 ?x709)) 24003)) (- 1) 0))))
 (let ((?x262 (ite (> 22803 (+ (+ ?x539 (- 7 ?x709)) 24003)) 1 (ite (<= 25203 (+ (+ ?x539 (- 7 ?x709)) 24003)) (- 1) 0))))
 (let ((?x235 (ite (>= ?x314 (+ ?x509 ?x262)) 7 (ite (>= ?x314 (+ ?x496 ?x491)) 6 ?x745))))
 (let ((?x231 (ite (> 22803 (+ (+ ?x539 (- 8 ?x709)) 24003)) 1 (ite (<= 25203 (+ (+ ?x539 (- 8 ?x709)) 24003)) (- 1) 0))))
 (let ((?x229 (ite (> 22803 (+ (+ ?x539 (- 9 ?x709)) 24003)) 1 (ite (<= 25203 (+ (+ ?x539 (- 9 ?x709)) 24003)) (- 1) 0))))
 (let ((?x212 (ite (>= ?x314 (+ ?x355 ?x229)) 9 (ite (>= ?x314 (+ ?x404 ?x231)) 8 ?x235))))
 (let ((?x773 (ite (> 22803 (+ (+ ?x539 (- 10 ?x709)) 24003)) 1 (ite (<= 25203 (+ (+ ?x539 (- 10 ?x709)) 24003)) (- 1) 0))))
 (let ((?x784 (ite (> 22803 (+ (+ ?x539 (- 11 ?x709)) 24003)) 1 (ite (<= 25203 (+ (+ ?x539 (- 11 ?x709)) 24003)) (- 1) 0))))
 (let ((?x792 (ite (>= ?x314 (+ ?x785 ?x784)) 11 (ite (>= ?x314 (+ ?x352 ?x773)) 10 ?x212))))
 (let ((?x808 (ite (> 22803 (+ (+ ?x539 (- 12 ?x709)) 24003)) 1 (ite (<= 25203 (+ (+ ?x539 (- 12 ?x709)) 24003)) (- 1) 0))))
 (let ((?x264 (ite (> 22803 (+ (+ ?x539 (- 13 ?x709)) 24003)) 1 (ite (<= 25203 (+ (+ ?x539 (- 13 ?x709)) 24003)) (- 1) 0))))
 (let ((?x277 (ite (>= ?x314 (+ ?x810 ?x264)) 13 (ite (>= ?x314 (+ ?x529 ?x808)) 12 ?x792))))
 (let ((?x818 (ite (> 22803 (+ (+ ?x539 (- 14 ?x709)) 24003)) 1 (ite (<= 25203 (+ (+ ?x539 (- 14 ?x709)) 24003)) (- 1) 0))))
 (let ((?x826 (ite (> 22803 (+ (+ ?x539 (- 15 ?x709)) 24003)) 1 (ite (<= 25203 (+ (+ ?x539 (- 15 ?x709)) 24003)) (- 1) 0))))
 (let ((?x830 (ite (>= ?x314 (+ ?x827 ?x826)) 15 (ite (>= ?x314 (+ ?x817 ?x818)) 14 ?x277))))
 (let ((?x319 (ite (> 22803 (+ (+ ?x539 (- 16 ?x709)) 24003)) 1 (ite (<= 25203 (+ (+ ?x539 (- 16 ?x709)) 24003)) (- 1) 0))))
 (let ((?x854 (ite (> 22803 (+ (+ ?x539 (- 17 ?x709)) 24003)) 1 (ite (<= 25203 (+ (+ ?x539 (- 17 ?x709)) 24003)) (- 1) 0))))
 (let ((?x875 (ite (>= ?x314 (+ ?x855 ?x854)) 17 (ite (>= ?x314 (+ ?x475 ?x319)) 16 ?x830))))
 (let ((?x881 (ite (> 22803 (+ (+ ?x539 (- 18 ?x709)) 24003)) 1 (ite (<= 25203 (+ (+ ?x539 (- 18 ?x709)) 24003)) (- 1) 0))))
 (let ((?x893 (ite (> 22803 (+ (+ ?x539 (- 19 ?x709)) 24003)) 1 (ite (<= 25203 (+ (+ ?x539 (- 19 ?x709)) 24003)) (- 1) 0))))
 (let ((?x924 (ite (>= ?x314 (+ ?x915 ?x893)) 19 (ite (>= ?x314 (+ ?x806 ?x881)) 18 ?x875))))
 (let ((?x931 (ite (> 22803 (+ (+ ?x539 (- 20 ?x709)) 24003)) 1 (ite (<= 25203 (+ (+ ?x539 (- 20 ?x709)) 24003)) (- 1) 0))))
 (let ((?x944 (ite (> 22803 (+ (+ ?x539 (- 21 ?x709)) 24003)) 1 (ite (<= 25203 (+ (+ ?x539 (- 21 ?x709)) 24003)) (- 1) 0))))
 (let ((?x948 (ite (>= ?x314 (+ ?x945 ?x944)) 21 (ite (>= ?x314 (+ ?x934 ?x931)) 20 ?x924))))
 (let ((?x955 (ite (> 22803 (+ (+ ?x539 (- 22 ?x709)) 24003)) 1 (ite (<= 25203 (+ (+ ?x539 (- 22 ?x709)) 24003)) (- 1) 0))))
 (let ((?x966 (ite (> 22803 (+ (+ ?x539 (- 23 ?x709)) 24003)) 1 (ite (<= 25203 (+ (+ ?x539 (- 23 ?x709)) 24003)) (- 1) 0))))
 (let ((?x970 (ite (>= ?x314 (+ ?x967 ?x966)) 23 (ite (>= ?x314 (+ ?x956 ?x955)) 22 ?x948))))
 (let ((?x977 (ite (> 22803 (+ (+ ?x539 (- 24 ?x709)) 24003)) 1 (ite (<= 25203 (+ (+ ?x539 (- 24 ?x709)) 24003)) (- 1) 0))))
 (let ((?x987 (ite (> 22803 (+ (+ ?x539 (- 25 ?x709)) 24003)) 1 (ite (<= 25203 (+ (+ ?x539 (- 25 ?x709)) 24003)) (- 1) 0))))
 (let ((?x1008 (ite (>= ?x314 (+ ?x988 ?x987)) 25 (ite (>= ?x314 (+ ?x916 ?x977)) 24 ?x970))))
 (let ((?x848 (ite (> 22803 (+ (+ ?x539 (- 26 ?x709)) 24003)) 1 (ite (<= 25203 (+ (+ ?x539 (- 26 ?x709)) 24003)) (- 1) 0))))
 (let ((?x906 (ite (> 22803 (+ (+ ?x539 (- 27 ?x709)) 24003)) 1 (ite (<= 25203 (+ (+ ?x539 (- 27 ?x709)) 24003)) (- 1) 0))))
 (let ((?x901 (ite (>= ?x314 (+ ?x907 ?x906)) 27 (ite (>= ?x314 (+ ?x849 ?x848)) 26 ?x1008))))
 (let ((?x900 (ite (> 22803 (+ (+ ?x539 (- 28 ?x709)) 24003)) 1 (ite (<= 25203 (+ (+ ?x539 (- 28 ?x709)) 24003)) (- 1) 0))))
 (let ((?x1005 (ite (> 22803 (+ (+ ?x539 (- 29 ?x709)) 24003)) 1 (ite (<= 25203 (+ (+ ?x539 (- 29 ?x709)) 24003)) (- 1) 0))))
 (let ((?x1013 (ite (>= ?x314 (+ ?x1007 ?x1005)) 29 (ite (>= ?x314 (+ ?x902 ?x900)) 28 ?x901))))
 (let ((?x1022 (ite (> 22803 (+ (+ ?x539 (- 30 ?x709)) 24003)) 1 (ite (<= 25203 (+ (+ ?x539 (- 30 ?x709)) 24003)) (- 1) 0))))
 (let ((?x1036 (ite (> 22803 (+ (+ ?x539 (- 31 ?x709)) 24003)) 1 (ite (<= 25203 (+ (+ ?x539 (- 31 ?x709)) 24003)) (- 1) 0))))
 (let ((?x1038 (ite (>= ?x314 (+ ?x1040 ?x1036)) 31 (ite (>= ?x314 (+ ?x1023 ?x1022)) 30 ?x1013))))
 (let ((?x1009 (ite (> 22803 (+ (+ ?x539 (- 32 ?x709)) 24003)) 1 (ite (<= 25203 (+ (+ ?x539 (- 32 ?x709)) 24003)) (- 1) 0))))
 (let ((?x1064 (ite (> 22803 (+ (+ ?x539 (- 33 ?x709)) 24003)) 1 (ite (<= 25203 (+ (+ ?x539 (- 33 ?x709)) 24003)) (- 1) 0))))
 (let ((?x1075 (ite (>= ?x314 (+ ?x1066 ?x1064)) 33 (ite (>= ?x314 (+ ?x918 ?x1009)) 32 ?x1038))))
 (let ((?x1082 (ite (> 22803 (+ (+ ?x539 (- 34 ?x709)) 24003)) 1 (ite (<= 25203 (+ (+ ?x539 (- 34 ?x709)) 24003)) (- 1) 0))))
 (let ((?x993 (ite (> 22803 (+ (+ ?x539 (- 35 ?x709)) 24003)) 1 (ite (<= 25203 (+ (+ ?x539 (- 35 ?x709)) 24003)) (- 1) 0))))
 (let ((?x279 (ite (>= ?x314 (+ ?x990 ?x993)) 35 (ite (>= ?x314 (+ ?x1083 ?x1082)) 34 ?x1075))))
 (let ((?x837 (ite (> 22803 (+ (+ ?x539 (- 36 ?x709)) 24003)) 1 (ite (<= 25203 (+ (+ ?x539 (- 36 ?x709)) 24003)) (- 1) 0))))
 (let ((?x495 (ite (> 22803 (+ (+ ?x539 (- 37 ?x709)) 24003)) 1 (ite (<= 25203 (+ (+ ?x539 (- 37 ?x709)) 24003)) (- 1) 0))))
 (let ((?x1043 (ite (>= ?x314 (+ ?x281 ?x495)) 37 (ite (>= ?x314 (+ ?x757 ?x837)) 36 ?x279))))
 (let ((?x933 (ite (> 22803 (+ (+ ?x539 (- 38 ?x709)) 24003)) 1 (ite (<= 25203 (+ (+ ?x539 (- 38 ?x709)) 24003)) (- 1) 0))))
 (let ((?x801 (ite (> 22803 (+ (+ ?x539 (- 39 ?x709)) 24003)) 1 (ite (<= 25203 (+ (+ ?x539 (- 39 ?x709)) 24003)) (- 1) 0))))
 (let ((?x794 (ite (>= ?x314 (+ ?x802 ?x801)) 39 (ite (>= ?x314 (+ ?x863 ?x933)) 38 ?x1043))))
 (let ((?x844 (ite (> 22803 (+ (+ ?x539 (- 40 ?x709)) 24003)) 1 (ite (<= 25203 (+ (+ ?x539 (- 40 ?x709)) 24003)) (- 1) 0))))
 (let ((?x1049 (ite (> 22803 (+ (+ ?x539 (- 41 ?x709)) 24003)) 1 (ite (<= 25203 (+ (+ ?x539 (- 41 ?x709)) 24003)) (- 1) 0))))
 (let ((?x1029 (ite (>= ?x314 (+ ?x857 ?x1049)) 41 (ite (>= ?x314 (+ ?x845 ?x844)) 40 ?x794))))
 (let ((?x913 (ite (> 22803 (+ (+ ?x539 (- 42 ?x709)) 24003)) 1 (ite (<= 25203 (+ (+ ?x539 (- 42 ?x709)) 24003)) (- 1) 0))))
 (let ((?x761 (ite (> 22803 (+ (+ ?x539 (- 43 ?x709)) 24003)) 1 (ite (<= 25203 (+ (+ ?x539 (- 43 ?x709)) 24003)) (- 1) 0))))
 (let ((?x1042 (ite (>= ?x314 (+ ?x759 ?x761)) 43 (ite (>= ?x314 (+ ?x799 ?x913)) 42 ?x1029))))
 (let ((?x450 (ite (> 22803 (+ (+ ?x539 (- 44 ?x709)) 24003)) 1 (ite (<= 25203 (+ (+ ?x539 (- 44 ?x709)) 24003)) (- 1) 0))))
 (let ((?x1098 (ite (> 22803 (+ (+ ?x539 (- 45 ?x709)) 24003)) 1 (ite (<= 25203 (+ (+ ?x539 (- 45 ?x709)) 24003)) (- 1) 0))))
 (let ((?x994 (ite (>= ?x314 (+ ?x1091 ?x1098)) 45 (ite (>= ?x314 (+ ?x438 ?x450)) 44 ?x1042))))
 (let ((?x1001 (ite (> 22803 (+ (+ ?x539 (- 46 ?x709)) 24003)) 1 (ite (<= 25203 (+ (+ ?x539 (- 46 ?x709)) 24003)) (- 1) 0))))
 (let ((?x555 (ite (> 22803 (+ (+ ?x539 (- 47 ?x709)) 24003)) 1 (ite (<= 25203 (+ (+ ?x539 (- 47 ?x709)) 24003)) (- 1) 0))))
 (let ((?x1245 (ite (>= ?x314 (+ ?x1241 ?x555)) 47 (ite (>= ?x314 (+ ?x1003 ?x1001)) 46 ?x994))))
 (let ((?x1102 (+ ?x539 (- ?x1245 ?x709))))
 (let ((?x1103 (+ ?x1102 24003)))
 (let ((?x1109 (+ (select ?x202 ?x1245) (ite (> 22803 ?x1103) 1 (ite (<= 25203 ?x1103) (- 1) 0)))))
 (let ((?x1110 (- ?x314 ?x1109)))
 (let ((?x1115 (ite (or (= 22802 ?x1103) (= 25202 ?x1103)) 28 (select ?x108 ?x1245))))
 (let (($x1636 (= (ite (= 1 (ite (>= ?x1110 ?x1115) 1 0)) (- ?x1110 ?x1115) ?x1110) (ite (= 1 (ite (>= ?x1625 ?x1630) 1 0)) (- ?x1625 ?x1630) ?x1625))))
 (let (($x1121 (= (+ ?x1102 (ite (>= ?x1110 ?x1115) 1 0)) (+ ?x1617 (ite (>= ?x1625 ?x1630) 1 0)))))
 (and $x1121 $x1636)))))))))))))))))))))))))))))))))))))))))))))))))))))))))))))))))))))))))))))))))))))))))))))))))))))))))))))))))))))))))))))))))))))))))))))))))))))))))))))))))))))))))))))))))))))))))))))))))))))))))))))))))))))))))))))))))))))))))))))))))))))))))))))))))))))))))))))))))))))))))))
(assert
 (let ((?x687 (- (+ (* 2023 12) 12) 24003)))
(let (($x686 (= x_months ?x687)))
(and $x686 (= 29 x_beta)))))
(check-sat)
